
Gurobi 8.0.1 (linux64) logging started Wed Feb  5 14:07:59 2025


Gurobi Optimizer version 8.0.1 build v8.0.1rc0 (linux64)
Copyright (c) 2018, Gurobi Optimization, LLC

Read LP format model from file monFichierLP.lp
Reading time = 0.00 seconds
: 0 rows, 12 columns, 0 nonzeros
Optimize a model with 0 rows, 12 columns and 0 nonzeros
Variable types: 0 continuous, 12 integer (12 binary)
Coefficient statistics:
  Matrix range     [0e+00, 0e+00]
  Objective range  [1e+00, 1e+00]
  Bounds range     [1e+00, 1e+00]
  RHS range        [0e+00, 0e+00]
Found heuristic solution: objective 12.0000000

Explored 0 nodes (0 simplex iterations) in 0.06 seconds
Thread count was 1 (of 24 available processors)

Solution count 1: 12 

Optimal solution found (tolerance 1.00e-04)
Best objective 1.200000000000e+01, best bound 1.200000000000e+01, gap 0.0000%

Wrote result file 'affectation.sol'


Gurobi 8.0.1 (linux64) logging started Wed Feb  5 14:55:14 2025


Gurobi Optimizer version 8.0.1 build v8.0.1rc0 (linux64)
Copyright (c) 2018, Gurobi Optimization, LLC


ERROR 10003: Unable to open file 'fichierpl.lp' for input


Gurobi 8.0.1 (linux64) logging started Wed Feb  5 14:55:25 2025


Gurobi Optimizer version 8.0.1 build v8.0.1rc0 (linux64)
Copyright (c) 2018, Gurobi Optimization, LLC

Error reading LP format file test2.lp at line 6
Malformed term in expression
Neighboring tokens: " x5+x6+x7=1 c1: x0+x5+x6=1 c1: x0+x4+x7=1 c1: "


ERROR 10012: Unable to read file


Gurobi 8.0.1 (linux64) logging started Wed Feb  5 14:56:10 2025


Gurobi Optimizer version 8.0.1 build v8.0.1rc0 (linux64)
Copyright (c) 2018, Gurobi Optimization, LLC

Error reading LP format file test2.lp at line 6
Malformed term in expression
Neighboring tokens: " x5+x6+x7=1 c1: x0+x5+x6=1 c1: x0+x4+x7=1 c1: "


ERROR 10012: Unable to read file


Gurobi 8.0.1 (linux64) logging started Wed Feb  5 14:56:58 2025


Gurobi Optimizer version 8.0.1 build v8.0.1rc0 (linux64)
Copyright (c) 2018, Gurobi Optimization, LLC

Error reading LP format file test2.lp at line 6
Malformed term in expression
Neighboring tokens: " x5+x6+x7=1 c2: x0+x5+x6=1 c3: x0+x4+x7=1 c4: "


ERROR 10012: Unable to read file


Gurobi 8.0.1 (linux64) logging started Wed Feb  5 14:57:19 2025


Gurobi Optimizer version 8.0.1 build v8.0.1rc0 (linux64)
Copyright (c) 2018, Gurobi Optimization, LLC

Error reading LP format file test2.lp at line 8
Malformed term in expression
Neighboring tokens: " x0+x4+x7=1 c4: x5+x6+x7=1 c5: x1+x6+x7=1 c6: "


ERROR 10012: Unable to read file


Gurobi 8.0.1 (linux64) logging started Wed Feb  5 14:57:59 2025


Gurobi Optimizer version 8.0.1 build v8.0.1rc0 (linux64)
Copyright (c) 2018, Gurobi Optimization, LLC

Error reading LP format file test2.lp at line 14
Malformed term in expression
Neighboring tokens: " int x0, x1, x2, x3, x4, x5, x6, x7, x8; "


ERROR 10012: Unable to read file


Gurobi 8.0.1 (linux64) logging started Wed Feb  5 14:59:07 2025


Gurobi Optimizer version 8.0.1 build v8.0.1rc0 (linux64)
Copyright (c) 2018, Gurobi Optimization, LLC

Read LP format model from file test2.lp
Reading time = 0.00 seconds
obj: 11 rows, 8 columns, 33 nonzeros
Optimize a model with 11 rows, 8 columns and 33 nonzeros
Coefficient statistics:
  Matrix range     [1e+00, 1e+00]
  Objective range  [1e+00, 1e+00]
  Bounds range     [0e+00, 0e+00]
  RHS range        [1e+00, 1e+00]
Presolve time: 0.00s

Solved in 0 iterations and 0.00 seconds
Infeasible or unbounded model

Unable to retrieve attribute 'X'


Gurobi 8.0.1 (linux64) logging started Wed Feb  5 15:00:14 2025


Gurobi Optimizer version 8.0.1 build v8.0.1rc0 (linux64)
Copyright (c) 2018, Gurobi Optimization, LLC

Error reading LP format file test2.lp at line 14
Malformed term in expression
Neighboring tokens: " int x0, x1, x2, x3, x4, x5, x6, x7, x8; "


ERROR 10012: Unable to read file


Gurobi 8.0.1 (linux64) logging started Wed Feb  5 15:00:29 2025


Gurobi Optimizer version 8.0.1 build v8.0.1rc0 (linux64)
Copyright (c) 2018, Gurobi Optimization, LLC

Read LP format model from file test2.lp
Reading time = 0.00 seconds
obj: 11 rows, 9 columns, 44 nonzeros
Optimize a model with 11 rows, 9 columns and 44 nonzeros
Coefficient statistics:
  Matrix range     [1e+00, 1e+00]
  Objective range  [1e+00, 1e+00]
  Bounds range     [0e+00, 0e+00]
  RHS range        [1e+00, 1e+00]
Presolve time: 0.00s

Solved in 0 iterations and 0.00 seconds
Infeasible or unbounded model

Unable to retrieve attribute 'X'


Gurobi 8.0.1 (linux64) logging started Wed Feb  5 15:01:04 2025


Gurobi Optimizer version 8.0.1 build v8.0.1rc0 (linux64)
Copyright (c) 2018, Gurobi Optimization, LLC

Read LP format model from file test2.lp
Reading time = 0.00 seconds
obj: 11 rows, 10 columns, 99 nonzeros
Optimize a model with 11 rows, 10 columns and 99 nonzeros
Coefficient statistics:
  Matrix range     [1e+00, 1e+00]
  Objective range  [1e+00, 1e+00]
  Bounds range     [0e+00, 0e+00]
  RHS range        [1e+00, 1e+00]
Presolve time: 0.00s

Solved in 0 iterations and 0.00 seconds
Infeasible or unbounded model

Unable to retrieve attribute 'X'


Gurobi 8.0.1 (linux64) logging started Wed Feb  5 15:01:28 2025


Gurobi Optimizer version 8.0.1 build v8.0.1rc0 (linux64)
Copyright (c) 2018, Gurobi Optimization, LLC

Read LP format model from file test2.lp
Reading time = 0.00 seconds
obj: 11 rows, 10 columns, 99 nonzeros
Optimize a model with 11 rows, 10 columns and 99 nonzeros
Coefficient statistics:
  Matrix range     [1e+00, 1e+00]
  Objective range  [1e+00, 1e+00]
  Bounds range     [0e+00, 0e+00]
  RHS range        [1e+00, 1e+00]
Presolve time: 0.00s

Solved in 0 iterations and 0.00 seconds
Infeasible or unbounded model

Unable to retrieve attribute 'X'


Gurobi 8.0.1 (linux64) logging started Wed Feb  5 15:03:01 2025


Gurobi Optimizer version 8.0.1 build v8.0.1rc0 (linux64)
Copyright (c) 2018, Gurobi Optimization, LLC

Read LP format model from file test2.lp
Reading time = 0.00 seconds
obj: 11 rows, 10 columns, 99 nonzeros
Optimize a model with 11 rows, 10 columns and 99 nonzeros
Coefficient statistics:
  Matrix range     [1e+00, 1e+00]
  Objective range  [1e+00, 1e+00]
  Bounds range     [0e+00, 0e+00]
  RHS range        [1e+00, 1e+00]
Presolve time: 0.00s

Solved in 0 iterations and 0.00 seconds
Infeasible or unbounded model

Unable to retrieve attribute 'X'


Gurobi 8.0.1 (linux64) logging started Wed Feb  5 15:03:10 2025


Gurobi Optimizer version 8.0.1 build v8.0.1rc0 (linux64)
Copyright (c) 2018, Gurobi Optimization, LLC

Read LP format model from file test2.lp
Reading time = 0.00 seconds
obj: 11 rows, 10 columns, 99 nonzeros
Optimize a model with 11 rows, 10 columns and 99 nonzeros
Coefficient statistics:
  Matrix range     [1e+00, 1e+00]
  Objective range  [1e+00, 1e+00]
  Bounds range     [0e+00, 0e+00]
  RHS range        [1e+00, 1e+00]
Presolve time: 0.00s

Solved in 0 iterations and 0.00 seconds
Infeasible or unbounded model

Unable to retrieve attribute 'X'


Gurobi 8.0.1 (linux64) logging started Wed Feb  5 15:04:04 2025


Gurobi Optimizer version 8.0.1 build v8.0.1rc0 (linux64)
Copyright (c) 2018, Gurobi Optimization, LLC

Read LP format model from file test2.lp
Reading time = 0.00 seconds
obj: 11 rows, 10 columns, 99 nonzeros
Optimize a model with 11 rows, 10 columns and 99 nonzeros
Coefficient statistics:
  Matrix range     [1e+00, 1e+00]
  Objective range  [1e+00, 1e+00]
  Bounds range     [0e+00, 0e+00]
  RHS range        [1e+00, 1e+00]
Presolve time: 0.00s

Solved in 0 iterations and 0.00 seconds
Infeasible or unbounded model

Unable to retrieve attribute 'X'


Gurobi 8.0.1 (linux64) logging started Wed Feb  5 15:04:30 2025


Gurobi Optimizer version 8.0.1 build v8.0.1rc0 (linux64)
Copyright (c) 2018, Gurobi Optimization, LLC

Warning: unknown variable 'x9' in binary section
Warning: unknown variable 'x10' in binary section
Warning: unknown variable 'x11' in binary section
Read LP format model from file test2.lp
Reading time = 0.00 seconds
obj: 11 rows, 13 columns, 99 nonzeros
Optimize a model with 11 rows, 13 columns and 99 nonzeros
Variable types: 1 continuous, 12 integer (12 binary)
Coefficient statistics:
  Matrix range     [1e+00, 1e+00]
  Objective range  [1e+00, 1e+00]
  Bounds range     [1e+00, 1e+00]
  RHS range        [1e+00, 1e+00]
Found heuristic solution: objective 1.000000e+30
Presolve time: 0.00s

Explored 0 nodes (0 simplex iterations) in 0.00 seconds
Thread count was 1 (of 24 available processors)

Solution count 1: 1e+30 
No other solutions better than 0

Model is unbounded
Best objective 1.000000000000e+30, best bound -, gap -

Wrote result file 'affectation.sol'


Gurobi 8.0.1 (linux64) logging started Wed Feb  5 15:04:57 2025


Gurobi Optimizer version 8.0.1 build v8.0.1rc0 (linux64)
Copyright (c) 2018, Gurobi Optimization, LLC

Warning: unknown variable 'x9' in binary section
Warning: unknown variable 'x10' in binary section
Warning: unknown variable 'x11' in binary section
Read LP format model from file test2.lp
Reading time = 0.00 seconds
obj: 11 rows, 13 columns, 99 nonzeros
Optimize a model with 11 rows, 13 columns and 99 nonzeros
Variable types: 1 continuous, 12 integer (12 binary)
Coefficient statistics:
  Matrix range     [1e+00, 1e+00]
  Objective range  [1e+00, 1e+00]
  Bounds range     [1e+00, 1e+00]
  RHS range        [1e+00, 1e+00]
Found heuristic solution: objective 1.000000e+30
Presolve time: 0.00s

Explored 0 nodes (0 simplex iterations) in 0.00 seconds
Thread count was 1 (of 24 available processors)

Solution count 1: 1e+30 
No other solutions better than 0

Model is unbounded
Best objective 1.000000000000e+30, best bound -, gap -

Wrote result file 'affectation.sol'


Gurobi 8.0.1 (linux64) logging started Wed Feb  5 15:06:56 2025


Gurobi Optimizer version 8.0.1 build v8.0.1rc0 (linux64)
Copyright (c) 2018, Gurobi Optimization, LLC

Read LP format model from file test2.lp
Reading time = 0.00 seconds
obj: 11 rows, 9 columns, 99 nonzeros
Optimize a model with 11 rows, 9 columns and 99 nonzeros
Variable types: 0 continuous, 9 integer (9 binary)
Coefficient statistics:
  Matrix range     [1e+00, 1e+00]
  Objective range  [1e+00, 1e+00]
  Bounds range     [1e+00, 1e+00]
  RHS range        [1e+00, 1e+00]
Found heuristic solution: objective 1.0000000
Presolve removed 11 rows and 9 columns
Presolve time: 0.01s
Presolve: All rows and columns removed

Explored 0 nodes (0 simplex iterations) in 0.01 seconds
Thread count was 1 (of 24 available processors)

Solution count 1: 1 

Optimal solution found (tolerance 1.00e-04)
Best objective 1.000000000000e+00, best bound 1.000000000000e+00, gap 0.0000%

Wrote result file 'affectation.sol'


Gurobi 8.0.1 (linux64) logging started Wed Feb  5 15:07:11 2025


Gurobi Optimizer version 8.0.1 build v8.0.1rc0 (linux64)
Copyright (c) 2018, Gurobi Optimization, LLC

Read LP format model from file test2.lp
Reading time = 0.00 seconds
obj: 11 rows, 9 columns, 33 nonzeros
Optimize a model with 11 rows, 9 columns and 33 nonzeros
Variable types: 0 continuous, 9 integer (9 binary)
Coefficient statistics:
  Matrix range     [1e+00, 1e+00]
  Objective range  [1e+00, 1e+00]
  Bounds range     [1e+00, 1e+00]
  RHS range        [1e+00, 1e+00]
Presolve removed 11 rows and 9 columns
Presolve time: 0.00s
Presolve: All rows and columns removed

Explored 0 nodes (0 simplex iterations) in 0.00 seconds
Thread count was 1 (of 24 available processors)

Solution count 1: 5 

Optimal solution found (tolerance 1.00e-04)
Best objective 5.000000000000e+00, best bound 5.000000000000e+00, gap 0.0000%

Wrote result file 'affectation.sol'


Gurobi 8.0.1 (linux64) logging started Wed Feb  5 15:07:50 2025


Gurobi Optimizer version 8.0.1 build v8.0.1rc0 (linux64)
Copyright (c) 2018, Gurobi Optimization, LLC

Read LP format model from file test2.lp
Reading time = 0.00 seconds
obj: 11 rows, 9 columns, 44 nonzeros
Optimize a model with 11 rows, 9 columns and 44 nonzeros
Variable types: 0 continuous, 9 integer (9 binary)
Coefficient statistics:
  Matrix range     [1e+00, 1e+00]
  Objective range  [1e+00, 1e+00]
  Bounds range     [1e+00, 1e+00]
  RHS range        [1e+00, 1e+00]
Presolve removed 9 rows and 8 columns
Presolve time: 0.00s

Explored 0 nodes (0 simplex iterations) in 0.00 seconds
Thread count was 1 (of 24 available processors)

Solution count 0

Model is infeasible
Best objective -, best bound -, gap -

Unable to retrieve attribute 'X'


Gurobi 8.0.1 (linux64) logging started Wed Feb  5 15:08:02 2025


Gurobi Optimizer version 8.0.1 build v8.0.1rc0 (linux64)
Copyright (c) 2018, Gurobi Optimization, LLC

Read LP format model from file test2.lp
Reading time = 0.00 seconds
obj: 11 rows, 9 columns, 44 nonzeros
Optimize a model with 11 rows, 9 columns and 44 nonzeros
Variable types: 0 continuous, 9 integer (9 binary)
Coefficient statistics:
  Matrix range     [1e+00, 1e+00]
  Objective range  [1e+00, 1e+00]
  Bounds range     [1e+00, 1e+00]
  RHS range        [1e+00, 1e+00]
Presolve removed 9 rows and 8 columns
Presolve time: 0.00s

Explored 0 nodes (0 simplex iterations) in 0.00 seconds
Thread count was 1 (of 24 available processors)

Solution count 0

Model is infeasible
Best objective -, best bound -, gap -

Unable to retrieve attribute 'X'


Gurobi 8.0.1 (linux64) logging started Wed Feb  5 15:08:12 2025


Gurobi Optimizer version 8.0.1 build v8.0.1rc0 (linux64)
Copyright (c) 2018, Gurobi Optimization, LLC

Read LP format model from file test2.lp
Reading time = 0.00 seconds
obj: 11 rows, 9 columns, 55 nonzeros
Optimize a model with 11 rows, 9 columns and 55 nonzeros
Variable types: 0 continuous, 9 integer (9 binary)
Coefficient statistics:
  Matrix range     [1e+00, 1e+00]
  Objective range  [1e+00, 1e+00]
  Bounds range     [1e+00, 1e+00]
  RHS range        [1e+00, 1e+00]
Presolve removed 6 rows and 7 columns
Presolve time: 0.00s

Explored 0 nodes (0 simplex iterations) in 0.00 seconds
Thread count was 1 (of 24 available processors)

Solution count 0

Model is infeasible
Best objective -, best bound -, gap -

Unable to retrieve attribute 'X'


Gurobi 8.0.1 (linux64) logging started Wed Feb  5 15:08:21 2025


Gurobi Optimizer version 8.0.1 build v8.0.1rc0 (linux64)
Copyright (c) 2018, Gurobi Optimization, LLC

Read LP format model from file test2.lp
Reading time = 0.00 seconds
obj: 11 rows, 9 columns, 33 nonzeros
Optimize a model with 11 rows, 9 columns and 33 nonzeros
Variable types: 0 continuous, 9 integer (9 binary)
Coefficient statistics:
  Matrix range     [1e+00, 1e+00]
  Objective range  [1e+00, 1e+00]
  Bounds range     [1e+00, 1e+00]
  RHS range        [1e+00, 1e+00]
Presolve removed 11 rows and 9 columns
Presolve time: 0.00s
Presolve: All rows and columns removed

Explored 0 nodes (0 simplex iterations) in 0.00 seconds
Thread count was 1 (of 24 available processors)

Solution count 1: 5 

Optimal solution found (tolerance 1.00e-04)
Best objective 5.000000000000e+00, best bound 5.000000000000e+00, gap 0.0000%

Wrote result file 'affectation.sol'


Gurobi 8.0.1 (linux64) logging started Wed Feb  5 15:09:11 2025


Gurobi Optimizer version 8.0.1 build v8.0.1rc0 (linux64)
Copyright (c) 2018, Gurobi Optimization, LLC

Read LP format model from file test2.lp
Reading time = 0.00 seconds
obj: 11 rows, 9 columns, 33 nonzeros
Optimize a model with 11 rows, 9 columns and 33 nonzeros
Variable types: 0 continuous, 9 integer (9 binary)
Coefficient statistics:
  Matrix range     [1e+00, 1e+00]
  Objective range  [1e+00, 1e+00]
  Bounds range     [1e+00, 1e+00]
  RHS range        [1e+00, 1e+00]
Found heuristic solution: objective 5.0000000
Presolve removed 11 rows and 9 columns
Presolve time: 0.00s
Presolve: All rows and columns removed

Explored 0 nodes (0 simplex iterations) in 0.00 seconds
Thread count was 1 (of 24 available processors)

Solution count 1: 5 

Optimal solution found (tolerance 1.00e-04)
Best objective 5.000000000000e+00, best bound 5.000000000000e+00, gap 0.0000%

Wrote result file 'affectation.sol'


Gurobi 8.0.1 (linux64) logging started Wed Feb  5 15:09:32 2025


Gurobi Optimizer version 8.0.1 build v8.0.1rc0 (linux64)
Copyright (c) 2018, Gurobi Optimization, LLC

Read LP format model from file test2.lp
Reading time = 0.00 seconds
obj: 11 rows, 9 columns, 44 nonzeros
Optimize a model with 11 rows, 9 columns and 44 nonzeros
Variable types: 0 continuous, 9 integer (9 binary)
Coefficient statistics:
  Matrix range     [1e+00, 1e+00]
  Objective range  [1e+00, 1e+00]
  Bounds range     [1e+00, 1e+00]
  RHS range        [1e+00, 1e+00]
Found heuristic solution: objective 3.0000000
Presolve removed 11 rows and 9 columns
Presolve time: 0.00s
Presolve: All rows and columns removed

Explored 0 nodes (0 simplex iterations) in 0.00 seconds
Thread count was 1 (of 24 available processors)

Solution count 1: 3 

Optimal solution found (tolerance 1.00e-04)
Best objective 3.000000000000e+00, best bound 3.000000000000e+00, gap 0.0000%

Wrote result file 'affectation.sol'


Gurobi 8.0.1 (linux64) logging started Wed Feb  5 15:09:51 2025


Gurobi Optimizer version 8.0.1 build v8.0.1rc0 (linux64)
Copyright (c) 2018, Gurobi Optimization, LLC

Read LP format model from file test2.lp
Reading time = 0.00 seconds
obj: 11 rows, 9 columns, 55 nonzeros
Optimize a model with 11 rows, 9 columns and 55 nonzeros
Variable types: 0 continuous, 9 integer (9 binary)
Coefficient statistics:
  Matrix range     [1e+00, 1e+00]
  Objective range  [1e+00, 1e+00]
  Bounds range     [1e+00, 1e+00]
  RHS range        [1e+00, 1e+00]
Found heuristic solution: objective 1.0000000
Presolve removed 11 rows and 9 columns
Presolve time: 0.00s
Presolve: All rows and columns removed

Explored 0 nodes (0 simplex iterations) in 0.00 seconds
Thread count was 1 (of 24 available processors)

Solution count 2: 2 1 

Optimal solution found (tolerance 1.00e-04)
Best objective 2.000000000000e+00, best bound 2.000000000000e+00, gap 0.0000%

Wrote result file 'affectation.sol'


Gurobi 8.0.1 (linux64) logging started Wed Feb  5 15:13:34 2025


Gurobi Optimizer version 8.0.1 build v8.0.1rc0 (linux64)
Copyright (c) 2018, Gurobi Optimization, LLC

Read LP format model from file test2.lp
Reading time = 0.00 seconds
obj: 11 rows, 91 columns, 55 nonzeros
Optimize a model with 11 rows, 91 columns and 55 nonzeros
Variable types: 10 continuous, 81 integer (81 binary)
Coefficient statistics:
  Matrix range     [1e+00, 1e+00]
  Objective range  [1e+00, 1e+00]
  Bounds range     [1e+00, 1e+00]
  RHS range        [1e+00, 1e+00]
Found heuristic solution: objective 45.0000000
Presolve removed 11 rows and 91 columns
Presolve time: 0.00s
Presolve: All rows and columns removed

Explored 0 nodes (0 simplex iterations) in 0.00 seconds
Thread count was 1 (of 24 available processors)

Solution count 1: 45 

Optimal solution found (tolerance 1.00e-04)
Best objective 4.500000000000e+01, best bound 4.500000000000e+01, gap 0.0000%

Wrote result file 'affectation.sol'


Gurobi 8.0.1 (linux64) logging started Wed Feb  5 15:14:20 2025


Gurobi Optimizer version 8.0.1 build v8.0.1rc0 (linux64)
Copyright (c) 2018, Gurobi Optimization, LLC

Read LP format model from file test2.lp
Reading time = 0.00 seconds
obj: 11 rows, 91 columns, 55 nonzeros
Optimize a model with 11 rows, 91 columns and 55 nonzeros
Variable types: 10 continuous, 81 integer (81 binary)
Coefficient statistics:
  Matrix range     [1e+00, 1e+00]
  Objective range  [1e+00, 1e+00]
  Bounds range     [1e+00, 1e+00]
  RHS range        [1e+00, 1e+00]
Found heuristic solution: objective 45.0000000
Presolve removed 11 rows and 91 columns
Presolve time: 0.00s
Presolve: All rows and columns removed

Explored 0 nodes (0 simplex iterations) in 0.00 seconds
Thread count was 1 (of 24 available processors)

Solution count 1: 45 

Optimal solution found (tolerance 1.00e-04)
Best objective 4.500000000000e+01, best bound 4.500000000000e+01, gap 0.0000%

Wrote result file 'affectation.sol'


Gurobi 8.0.1 (linux64) logging started Wed Feb  5 15:17:29 2025


Gurobi Optimizer version 8.0.1 build v8.0.1rc0 (linux64)
Copyright (c) 2018, Gurobi Optimization, LLC

Read LP format model from file test2.lp
Reading time = 0.00 seconds
obj: 22 rows, 99 columns, 154 nonzeros
Optimize a model with 22 rows, 99 columns and 154 nonzeros
Variable types: 18 continuous, 81 integer (81 binary)
Coefficient statistics:
  Matrix range     [1e+00, 1e+00]
  Objective range  [1e+00, 1e+00]
  Bounds range     [1e+00, 1e+00]
  RHS range        [1e+00, 1e+00]
Found heuristic solution: objective 9.0000000
Presolve removed 22 rows and 99 columns
Presolve time: 0.00s
Presolve: All rows and columns removed

Explored 0 nodes (0 simplex iterations) in 0.00 seconds
Thread count was 1 (of 24 available processors)

Solution count 1: 9 

Optimal solution found (tolerance 1.00e-04)
Best objective 9.000000000000e+00, best bound 9.000000000000e+00, gap 0.0000%

Wrote result file 'affectation.sol'


Gurobi 8.0.1 (linux64) logging started Wed Feb  5 15:20:15 2025


Gurobi Optimizer version 8.0.1 build v8.0.1rc0 (linux64)
Copyright (c) 2018, Gurobi Optimization, LLC

Read LP format model from file test2.lp
Reading time = 0.00 seconds
obj: 22 rows, 99 columns, 132 nonzeros
Optimize a model with 22 rows, 99 columns and 132 nonzeros
Variable types: 18 continuous, 81 integer (81 binary)
Coefficient statistics:
  Matrix range     [1e+00, 1e+00]
  Objective range  [1e+00, 1e+00]
  Bounds range     [1e+00, 1e+00]
  RHS range        [1e+00, 1e+00]
Found heuristic solution: objective 9.0000000
Presolve removed 22 rows and 99 columns
Presolve time: 0.00s
Presolve: All rows and columns removed

Explored 0 nodes (0 simplex iterations) in 0.00 seconds
Thread count was 1 (of 24 available processors)

Solution count 1: 9 

Optimal solution found (tolerance 1.00e-04)
Best objective 9.000000000000e+00, best bound 9.000000000000e+00, gap 0.0000%

Wrote result file 'affectation.sol'


Gurobi 8.0.1 (linux64) logging started Wed Feb  5 15:36:20 2025


Gurobi Optimizer version 8.0.1 build v8.0.1rc0 (linux64)
Copyright (c) 2018, Gurobi Optimization, LLC

Read LP format model from file test2.lp
Reading time = 0.00 seconds
obj: 20 rows, 99 columns, 132 nonzeros
Optimize a model with 20 rows, 99 columns and 132 nonzeros
Variable types: 18 continuous, 81 integer (81 binary)
Coefficient statistics:
  Matrix range     [1e+00, 1e+00]
  Objective range  [1e+00, 1e+00]
  Bounds range     [1e+00, 1e+00]
  RHS range        [1e+00, 2e+00]
Found heuristic solution: objective 11.0000000
Presolve removed 20 rows and 99 columns
Presolve time: 0.00s
Presolve: All rows and columns removed

Explored 0 nodes (0 simplex iterations) in 0.00 seconds
Thread count was 1 (of 24 available processors)

Solution count 1: 11 

Optimal solution found (tolerance 1.00e-04)
Best objective 1.100000000000e+01, best bound 1.100000000000e+01, gap 0.0000%

Wrote result file 'affectation.sol'


Gurobi 8.0.1 (linux64) logging started Wed Feb  5 15:36:41 2025


Gurobi Optimizer version 8.0.1 build v8.0.1rc0 (linux64)
Copyright (c) 2018, Gurobi Optimization, LLC

Read LP format model from file test2.lp
Reading time = 0.00 seconds
obj: 20 rows, 99 columns, 110 nonzeros
Optimize a model with 20 rows, 99 columns and 110 nonzeros
Variable types: 18 continuous, 81 integer (81 binary)
Coefficient statistics:
  Matrix range     [1e+00, 1e+00]
  Objective range  [1e+00, 1e+00]
  Bounds range     [1e+00, 1e+00]
  RHS range        [1e+00, 2e+00]
Found heuristic solution: objective 11.0000000
Presolve removed 20 rows and 99 columns
Presolve time: 0.00s
Presolve: All rows and columns removed

Explored 0 nodes (0 simplex iterations) in 0.00 seconds
Thread count was 1 (of 24 available processors)

Solution count 1: 11 

Optimal solution found (tolerance 1.00e-04)
Best objective 1.100000000000e+01, best bound 1.100000000000e+01, gap 0.0000%

Wrote result file 'affectation.sol'


Gurobi 8.0.1 (linux64) logging started Wed Feb  5 15:39:48 2025


Gurobi Optimizer version 8.0.1 build v8.0.1rc0 (linux64)
Copyright (c) 2018, Gurobi Optimization, LLC

Read LP format model from file test2.lp
Reading time = 0.00 seconds
obj: 31 rows, 99 columns, 209 nonzeros
Optimize a model with 31 rows, 99 columns and 209 nonzeros
Variable types: 18 continuous, 81 integer (81 binary)
Coefficient statistics:
  Matrix range     [1e+00, 1e+00]
  Objective range  [1e+00, 1e+00]
  Bounds range     [1e+00, 1e+00]
  RHS range        [1e+00, 2e+00]
Found heuristic solution: objective 9.0000000
Presolve removed 12 rows and 9 columns
Presolve time: 0.00s
Presolved: 19 rows, 90 columns, 180 nonzeros
Variable types: 0 continuous, 90 integer (88 binary)

Root relaxation: cutoff, 0 iterations, 0.01 seconds

Explored 0 nodes (0 simplex iterations) in 0.02 seconds
Thread count was 24 (of 24 available processors)

Solution count 1: 9 

Optimal solution found (tolerance 1.00e-04)
Best objective 9.000000000000e+00, best bound 9.000000000000e+00, gap 0.0000%

Wrote result file 'affectation.sol'


Gurobi 8.0.1 (linux64) logging started Wed Feb  5 15:40:44 2025


Gurobi Optimizer version 8.0.1 build v8.0.1rc0 (linux64)
Copyright (c) 2018, Gurobi Optimization, LLC

Read LP format model from file test2.lp
Reading time = 0.00 seconds
obj: 31 rows, 99 columns, 242 nonzeros
Optimize a model with 31 rows, 99 columns and 242 nonzeros
Variable types: 18 continuous, 81 integer (81 binary)
Coefficient statistics:
  Matrix range     [1e+00, 1e+00]
  Objective range  [1e+00, 1e+00]
  Bounds range     [1e+00, 1e+00]
  RHS range        [1e+00, 2e+00]
Found heuristic solution: objective 9.0000000
Presolve removed 12 rows and 9 columns
Presolve time: 0.00s
Presolved: 19 rows, 90 columns, 180 nonzeros
Variable types: 0 continuous, 90 integer (88 binary)

Root relaxation: cutoff, 0 iterations, 0.00 seconds

Explored 0 nodes (0 simplex iterations) in 0.00 seconds
Thread count was 24 (of 24 available processors)

Solution count 1: 9 

Optimal solution found (tolerance 1.00e-04)
Best objective 9.000000000000e+00, best bound 9.000000000000e+00, gap 0.0000%

Wrote result file 'affectation.sol'


Gurobi 8.0.1 (linux64) logging started Wed Feb  5 15:42:05 2025


Gurobi Optimizer version 8.0.1 build v8.0.1rc0 (linux64)
Copyright (c) 2018, Gurobi Optimization, LLC

Read LP format model from file test2.lp
Reading time = 0.00 seconds
obj: 20 rows, 99 columns, 143 nonzeros
Optimize a model with 20 rows, 99 columns and 143 nonzeros
Variable types: 18 continuous, 81 integer (81 binary)
Coefficient statistics:
  Matrix range     [1e+00, 1e+00]
  Objective range  [1e+00, 1e+00]
  Bounds range     [1e+00, 1e+00]
  RHS range        [1e+00, 2e+00]
Found heuristic solution: objective 11.0000000
Presolve removed 20 rows and 99 columns
Presolve time: 0.00s
Presolve: All rows and columns removed

Explored 0 nodes (0 simplex iterations) in 0.00 seconds
Thread count was 1 (of 24 available processors)

Solution count 1: 11 

Optimal solution found (tolerance 1.00e-04)
Best objective 1.100000000000e+01, best bound 1.100000000000e+01, gap 0.0000%

Wrote result file 'affectation.sol'


Gurobi 8.0.1 (linux64) logging started Wed Feb  5 15:43:37 2025


Gurobi Optimizer version 8.0.1 build v8.0.1rc0 (linux64)
Copyright (c) 2018, Gurobi Optimization, LLC

Read LP format model from file test2.lp
Reading time = 0.00 seconds
obj: 31 rows, 99 columns, 198 nonzeros
Optimize a model with 31 rows, 99 columns and 198 nonzeros
Variable types: 18 continuous, 81 integer (81 binary)
Coefficient statistics:
  Matrix range     [1e+00, 1e+00]
  Objective range  [1e+00, 1e+00]
  Bounds range     [1e+00, 1e+00]
  RHS range        [1e+00, 2e+00]
Presolve removed 12 rows and 90 columns
Presolve time: 0.00s

Explored 0 nodes (0 simplex iterations) in 0.00 seconds
Thread count was 1 (of 24 available processors)

Solution count 0

Model is infeasible
Best objective -, best bound -, gap -

Unable to retrieve attribute 'X'


Gurobi 8.0.1 (linux64) logging started Wed Feb  5 15:43:52 2025


Gurobi Optimizer version 8.0.1 build v8.0.1rc0 (linux64)
Copyright (c) 2018, Gurobi Optimization, LLC

Read LP format model from file test2.lp
Reading time = 0.00 seconds
obj: 31 rows, 99 columns, 198 nonzeros
Optimize a model with 31 rows, 99 columns and 198 nonzeros
Variable types: 18 continuous, 81 integer (81 binary)
Coefficient statistics:
  Matrix range     [1e+00, 1e+00]
  Objective range  [1e+00, 1e+00]
  Bounds range     [1e+00, 1e+00]
  RHS range        [1e+00, 2e+00]
Presolve removed 0 rows and 66 columns
Presolve time: 0.00s

Explored 0 nodes (0 simplex iterations) in 0.00 seconds
Thread count was 1 (of 24 available processors)

Solution count 0

Model is infeasible
Best objective -, best bound -, gap -

Unable to retrieve attribute 'X'


Gurobi 8.0.1 (linux64) logging started Wed Feb  5 15:45:09 2025


Gurobi Optimizer version 8.0.1 build v8.0.1rc0 (linux64)
Copyright (c) 2018, Gurobi Optimization, LLC

Read LP format model from file test2.lp
Reading time = 0.00 seconds
obj: 20 rows, 99 columns, 198 nonzeros
Optimize a model with 20 rows, 99 columns and 198 nonzeros
Variable types: 18 continuous, 81 integer (81 binary)
Coefficient statistics:
  Matrix range     [1e+00, 1e+00]
  Objective range  [1e+00, 1e+00]
  Bounds range     [1e+00, 1e+00]
  RHS range        [1e+00, 2e+00]
Found heuristic solution: objective 9.0000000
Presolve removed 1 rows and 9 columns
Presolve time: 0.00s
Presolved: 19 rows, 90 columns, 180 nonzeros
Variable types: 0 continuous, 90 integer (88 binary)

Root relaxation: cutoff, 0 iterations, 0.00 seconds

Explored 0 nodes (0 simplex iterations) in 0.00 seconds
Thread count was 24 (of 24 available processors)

Solution count 1: 9 

Optimal solution found (tolerance 1.00e-04)
Best objective 9.000000000000e+00, best bound 9.000000000000e+00, gap 0.0000%

Wrote result file 'affectation.sol'


Gurobi 8.0.1 (linux64) logging started Wed Feb  5 15:46:07 2025


Gurobi Optimizer version 8.0.1 build v8.0.1rc0 (linux64)
Copyright (c) 2018, Gurobi Optimization, LLC

Read LP format model from file test2.lp
Reading time = 0.00 seconds
obj: 31 rows, 99 columns, 198 nonzeros
Optimize a model with 31 rows, 99 columns and 198 nonzeros
Variable types: 18 continuous, 81 integer (81 binary)
Coefficient statistics:
  Matrix range     [1e+00, 1e+00]
  Objective range  [1e+00, 1e+00]
  Bounds range     [1e+00, 1e+00]
  RHS range        [1e+00, 2e+00]
Presolve removed 0 rows and 55 columns
Presolve time: 0.00s

Explored 0 nodes (0 simplex iterations) in 0.00 seconds
Thread count was 1 (of 24 available processors)

Solution count 0

Model is infeasible
Best objective -, best bound -, gap -

Unable to retrieve attribute 'X'


Gurobi 8.0.1 (linux64) logging started Wed Feb  5 15:46:23 2025


Gurobi Optimizer version 8.0.1 build v8.0.1rc0 (linux64)
Copyright (c) 2018, Gurobi Optimization, LLC

Read LP format model from file test2.lp
Reading time = 0.00 seconds
obj: 31 rows, 99 columns, 198 nonzeros
Optimize a model with 31 rows, 99 columns and 198 nonzeros
Variable types: 18 continuous, 81 integer (81 binary)
Coefficient statistics:
  Matrix range     [1e+00, 1e+00]
  Objective range  [1e+00, 1e+00]
  Bounds range     [1e+00, 1e+00]
  RHS range        [1e+00, 2e+00]
Presolve removed 0 rows and 66 columns
Presolve time: 0.00s

Explored 0 nodes (0 simplex iterations) in 0.00 seconds
Thread count was 1 (of 24 available processors)

Solution count 0

Model is infeasible
Best objective -, best bound -, gap -

Unable to retrieve attribute 'X'


Gurobi 8.0.1 (linux64) logging started Wed Feb  5 15:46:46 2025


Gurobi Optimizer version 8.0.1 build v8.0.1rc0 (linux64)
Copyright (c) 2018, Gurobi Optimization, LLC

Read LP format model from file test2.lp
Reading time = 0.00 seconds
obj: 31 rows, 99 columns, 198 nonzeros
Optimize a model with 31 rows, 99 columns and 198 nonzeros
Variable types: 18 continuous, 81 integer (81 binary)
Coefficient statistics:
  Matrix range     [1e+00, 1e+00]
  Objective range  [1e+00, 1e+00]
  Bounds range     [1e+00, 1e+00]
  RHS range        [1e+00, 2e+00]
Presolve removed 0 rows and 66 columns
Presolve time: 0.00s

Explored 0 nodes (0 simplex iterations) in 0.00 seconds
Thread count was 1 (of 24 available processors)

Solution count 0

Model is infeasible
Best objective -, best bound -, gap -

Unable to retrieve attribute 'X'


Gurobi 8.0.1 (linux64) logging started Wed Feb  5 15:48:49 2025


Gurobi Optimizer version 8.0.1 build v8.0.1rc0 (linux64)
Copyright (c) 2018, Gurobi Optimization, LLC

Read LP format model from file test2.lp
Reading time = 0.00 seconds
obj: 31 rows, 99 columns, 198 nonzeros
Optimize a model with 31 rows, 99 columns and 198 nonzeros
Variable types: 18 continuous, 81 integer (81 binary)
Coefficient statistics:
  Matrix range     [1e+00, 1e+00]
  Objective range  [1e+00, 1e+00]
  Bounds range     [1e+00, 1e+00]
  RHS range        [1e+00, 2e+00]
Presolve removed 0 rows and 66 columns
Presolve time: 0.00s

Explored 0 nodes (0 simplex iterations) in 0.00 seconds
Thread count was 1 (of 24 available processors)

Solution count 0

Model is infeasible
Best objective -, best bound -, gap -

Unable to retrieve attribute 'X'


Gurobi 8.0.1 (linux64) logging started Wed Feb  5 15:49:07 2025


Gurobi Optimizer version 8.0.1 build v8.0.1rc0 (linux64)
Copyright (c) 2018, Gurobi Optimization, LLC

Read LP format model from file test2.lp
Reading time = 0.00 seconds
obj: 31 rows, 99 columns, 198 nonzeros
Optimize a model with 31 rows, 99 columns and 198 nonzeros
Variable types: 18 continuous, 81 integer (81 binary)
Coefficient statistics:
  Matrix range     [1e+00, 1e+00]
  Objective range  [1e+00, 1e+00]
  Bounds range     [1e+00, 1e+00]
  RHS range        [1e+00, 2e+00]
Presolve removed 17 rows and 72 columns
Presolve time: 0.00s
Presolved: 14 rows, 27 columns, 54 nonzeros
Variable types: 3 continuous, 24 integer (24 binary)

Root relaxation: infeasible, 8 iterations, 0.00 seconds

    Nodes    |    Current Node    |     Objective Bounds      |     Work
 Expl Unexpl |  Obj  Depth IntInf | Incumbent    BestBd   Gap | It/Node Time

     0     0 infeasible    0               - infeasible      -     -    0s

Explored 0 nodes (8 simplex iterations) in 0.01 seconds
Thread count was 24 (of 24 available processors)

Solution count 0

Model is infeasible
Best objective -, best bound -, gap -

Unable to retrieve attribute 'X'


Gurobi 8.0.1 (linux64) logging started Wed Feb  5 15:50:15 2025


Gurobi Optimizer version 8.0.1 build v8.0.1rc0 (linux64)
Copyright (c) 2018, Gurobi Optimization, LLC

Read LP format model from file test2.lp
Reading time = 0.00 seconds
obj: 31 rows, 99 columns, 198 nonzeros
Optimize a model with 31 rows, 99 columns and 198 nonzeros
Variable types: 18 continuous, 81 integer (81 binary)
Coefficient statistics:
  Matrix range     [1e+00, 1e+00]
  Objective range  [1e+00, 1e+00]
  Bounds range     [1e+00, 1e+00]
  RHS range        [1e+00, 2e+00]
Presolve removed 17 rows and 72 columns
Presolve time: 0.00s
Presolved: 14 rows, 27 columns, 54 nonzeros
Variable types: 3 continuous, 24 integer (24 binary)

Root relaxation: infeasible, 8 iterations, 0.00 seconds

    Nodes    |    Current Node    |     Objective Bounds      |     Work
 Expl Unexpl |  Obj  Depth IntInf | Incumbent    BestBd   Gap | It/Node Time

     0     0 infeasible    0               - infeasible      -     -    0s

Explored 0 nodes (8 simplex iterations) in 0.01 seconds
Thread count was 24 (of 24 available processors)

Solution count 0

Model is infeasible
Best objective -, best bound -, gap -

Unable to retrieve attribute 'X'


Gurobi 8.0.1 (linux64) logging started Wed Feb  5 15:50:37 2025


Gurobi Optimizer version 8.0.1 build v8.0.1rc0 (linux64)
Copyright (c) 2018, Gurobi Optimization, LLC

Read LP format model from file test2.lp
Reading time = 0.00 seconds
obj: 20 rows, 99 columns, 198 nonzeros
Optimize a model with 20 rows, 99 columns and 198 nonzeros
Variable types: 18 continuous, 81 integer (81 binary)
Coefficient statistics:
  Matrix range     [1e+00, 1e+00]
  Objective range  [1e+00, 1e+00]
  Bounds range     [1e+00, 1e+00]
  RHS range        [1e+00, 2e+00]
Found heuristic solution: objective 9.0000000
Presolve removed 1 rows and 9 columns
Presolve time: 0.00s
Presolved: 19 rows, 90 columns, 180 nonzeros
Variable types: 0 continuous, 90 integer (88 binary)

Root relaxation: cutoff, 0 iterations, 0.00 seconds

Explored 0 nodes (0 simplex iterations) in 0.00 seconds
Thread count was 24 (of 24 available processors)

Solution count 1: 9 

Optimal solution found (tolerance 1.00e-04)
Best objective 9.000000000000e+00, best bound 9.000000000000e+00, gap 0.0000%

Wrote result file 'affectation.sol'


Gurobi 8.0.1 (linux64) logging started Fri Feb  7 13:23:37 2025


Gurobi 8.0.1 (linux64) logging started Fri Feb  7 13:23:52 2025


Gurobi 8.0.1 (linux64) logging started Fri Feb  7 13:24:49 2025


Gurobi 8.0.1 (linux64) logging started Fri Feb  7 13:25:46 2025


Gurobi 8.0.1 (linux64) logging started Fri Feb  7 13:27:47 2025


Gurobi 8.0.1 (linux64) logging started Fri Feb  7 13:27:55 2025


Gurobi 8.0.1 (linux64) logging started Fri Feb  7 13:28:26 2025


Gurobi 8.0.1 (linux64) logging started Fri Feb  7 13:29:57 2025


Gurobi 8.0.1 (linux64) logging started Fri Feb  7 13:32:30 2025


Gurobi 8.0.1 (linux64) logging started Fri Feb  7 13:34:04 2025


Gurobi 8.0.1 (linux64) logging started Fri Feb  7 13:34:32 2025


Gurobi 8.0.1 (linux64) logging started Fri Feb  7 13:34:39 2025


Gurobi 8.0.1 (linux64) logging started Fri Feb  7 13:34:47 2025


Gurobi 8.0.1 (linux64) logging started Fri Feb  7 13:35:40 2025


Gurobi 8.0.1 (linux64) logging started Fri Feb  7 14:00:19 2025

